RT is False
Default write of storage_offers_DA.csv just to have a file (but constraint should be inactive)
Reading model...
...model read.
creating competitive generators file...
...competitive generators recorded.
Loading data...
.. day-ahead data read.
Compiling instance...
...instance created.
Creating Offer Mitigation (model will solve as dispatch if TRUE)...
NOTE: storage offers will not be mitigated
...storage offer mitigation file created
LP
RUNNING NORMAL LP
Solving...

Welcome to IBM(R) ILOG(R) CPLEX(R) Interactive Optimizer 12.9.0.0
  with Simplex, Mixed Integer & Barrier Optimizers
5725-A06 5725-A29 5724-Y48 5724-Y49 5724-Y54 5724-Y55 5655-Y21
Copyright IBM Corp. 1988, 2019.  All Rights Reserved.

Type 'help' for a list of available commands.
Type 'help' followed by a command name for more
information on commands.

CPLEX> Logfile 'cplex.log' closed.
Logfile 'C:\Users\Luke\Desktop\competitiveMPEC_1.16\logs\tmpuq4rmef7.cplex.log' open.
CPLEX> New value for parallel optimization mode: -1
CPLEX> New value for mixed integer optimality gap tolerance: 0.01
CPLEX> New value for feasibility tolerance: 0.01
CPLEX> New value for deterministic time limit in ticks: 100000
CPLEX> Problem 'C:\Users\Luke\Desktop\competitiveMPEC_1.16\logs\tmpfkow1tlt.pyomo.lp' read.
Read time = 0.03 sec. (2.98 ticks)
CPLEX> Problem name         : C:\Users\Luke\Desktop\competitiveMPEC_1.16\logs\tmpfkow1tlt.pyomo.lp
Objective sense      : Minimize
Variables            :   25839  [Nneg: 889,  Box: 21470,  Free: 3480]
Objective nonzeros   :    2496
Linear constraints   :   27297  [Less: 13861,  Greater: 4416,  Equal: 9020]
  Nonzeros           :   87324
  RHS nonzeros       :   12140

Variables            : Min LB: -5000.000        Max UB: 5000.000       
Objective nonzeros   : Min   : 15.73158         Max   : 124.0997       
Linear constraints   :
  Nonzeros           : Min   : 0.8500000        Max   : 3000.000       
  RHS nonzeros       : Min   : 1.000000         Max   : 250000.0       
CPLEX> CPXPARAM_Parallel                                -1
CPXPARAM_Simplex_Tolerances_Feasibility          0.01
CPXPARAM_DetTimeLimit                            100000
CPXPARAM_MIP_Tolerances_MIPGap                   0.01
Parallel mode: opportunistic, using up to 24 threads for concurrent optimization.
Tried aggregator 1 time.
LP Presolve eliminated 22001 rows and 17630 columns.
Aggregator did 749 substitutions.
Reduced LP has 4547 rows, 7460 columns, and 19816 nonzeros.
Presolve time = 0.05 sec. (27.48 ticks)

Iteration log . . .
Iteration:     1   Dual objective     =             0.000000
Perturbation started.
Iteration:   101   Dual objective     =             0.000000
Iteration:   406   Dual objective     =             0.429816
Iteration:   730   Dual objective     =             0.730913
Iteration:  1072   Dual objective     =             1.082306
Iteration:  1403   Dual objective     =             1.333164
Iteration:  1776   Dual objective     =             1.631036
Iteration:  2080   Dual objective     =             1.799339
Iteration:  2371   Dual objective     =             1.848331
Iteration:  2610   Dual objective     =             1.872059
Iteration:  2844   Dual objective     =          3611.470302
Iteration:  3113   Dual objective     =          6220.439299
Iteration:  3347   Dual objective     =          6220.453011
Iteration:  3582   Dual objective     =         45548.155048
Iteration:  3918   Dual objective     =         60035.314505
Removing perturbation.

Dual simplex solved model.


Dual simplex - Optimal:  Objective =  6.1289007049e+04
Solution time =    0.11 sec.  Iterations = 4120 (0)
Deterministic time = 84.42 ticks  (774.52 ticks/sec)

CPLEX> Solution written to file 'C:\Users\Luke\Desktop\competitiveMPEC_1.16\logs\tmpjx53hsnf.cplex.sol'.
CPLEX> Exporting results... 
